(set-info :Origin "This instance was generated by: BanditFuzz-- an RL fuzzer for SMT solvers" )
(set-info :Author "Joe Scott, Fed Mora, Vijay Ganesh" )
(set-info :Contact "Joe Scott, joseph.scott@uwaterloo.ca")
(set-logic QF_BV)
(declare-const bool_0 Bool)
(declare-const bool_1 Bool)
(declare-const bool_2 Bool)
(declare-const bool_3 Bool)
(declare-const bool_4 Bool)
(declare-const bv_0 (_ BitVec 32))
(declare-const bv_1 (_ BitVec 32))
(declare-const bv_2 (_ BitVec 32))
(declare-const bv_3 (_ BitVec 32))
(declare-const bv_4 (_ BitVec 32))
(assert (and (not (bvsle bv_2 #xf0c8adcb )) (bvsle (bvsdiv bv_4 #xace94638 ) (bvand bv_0 bv_3))))
(assert (bvsge (bvsrem (bvor bv_1 #xa6190a0a ) (bvlshr bv_4 #x492cac87 )) (bvashr (bvand bv_1 #x59da2617 ) (bvsrem #x201225ca  #xb907f298 ))))
(assert (bvsge (bvudiv (bvlshr bv_2 bv_1) (bvxor #xd3d3ee4a  #x3b3c5451 )) (bvsdiv (bvlshr bv_1 #x3e992e25 ) (bvand bv_4 #x68867ab3 ))))
(assert (or (bvsge (bvmul #x5eae9c2c  #x9cfb16b3 ) (bvsub #x9482f0ad  bv_4)) (bvugt (bvshl bv_1 #x4dc7f0db ) (bvsdiv #x0195a521  #xdf8864de ))))
(assert (xor (and (bvsle #xd28de8bf  #xff302ad0 ) (xor false bool_3)) (and (xor false bool_4) (bvslt bv_1 bv_0))))
(check-sat)
(exit)
